{
  "Solver": "clingo version 5.7.0",
  "Input": [
    "../models/model.lp","clingo_input.lp"
  ],
  "Call": [
    {
      "Witnesses": [
        {
          "Value": [
            
          ],
          "Costs": [
            0
          ]
        },
        {
          "Value": [
            "assign(1,6)", "assign(0,4)", "assign(2,7)"
          ],
          "Costs": [
            -3
          ]
        }
      ]
    }
  ],
  "Result": "OPTIMUM FOUND",
  "Models": {
    "Number": 2,
    "More": "no",
    "Optimum": "yes",
    "Optimal": 1,
    "Costs": [
      -3
    ]
  },
  "Calls": 1,
  "Time": {
    "Total": 0.003,
    "Solve": 0.000,
    "Model": 0.000,
    "Unsat": 0.000,
    "CPU": 0.003
  }
}
